(set-info :smt-lib-version 2.6)
(set-info :category "crafted")
(set-logic QF_FFA)
(define-sort FF0 () (_ FiniteField 52435875175126190479447740508185965837690552500527637822603658699938581184513))
(declare-fun x4_n3_alt () FF0)
(declare-fun x1_n6_alt () FF0)
(declare-fun x2_n12_alt () FF0)
(declare-fun x11_n2_alt () FF0)
(declare-fun x7_n5_alt () FF0)
(declare-fun x6_n8_alt () FF0)
(declare-fun x9_n11_alt () FF0)
(declare-fun x5_n1_alt () FF0)
(declare-fun x10_n4_alt () FF0)
(declare-fun x0_n7_alt () FF0)
(declare-fun x3_n10_alt () FF0)
(declare-fun x8_n0_alt () FF0)
(declare-fun return_n9_alt () FF0)
(declare-fun is_zero_inv_n13_alt () FF0)
(declare-fun x4_n3 () FF0)
(declare-fun x1_n6 () FF0)
(declare-fun x2_n12 () FF0)
(declare-fun x11_n2 () FF0)
(declare-fun x7_n5 () FF0)
(declare-fun x6_n8 () FF0)
(declare-fun x9_n11 () FF0)
(declare-fun x5_n1 () FF0)
(declare-fun x10_n4 () FF0)
(declare-fun x0_n7 () FF0)
(declare-fun x3_n10 () FF0)
(declare-fun x8_n0 () FF0)
(declare-fun return_n9 () FF0)
(declare-fun is_zero_inv_n13 () FF0)
(assert 
  (let ((let0 (as ff0 FF0)))
  (let ((let1 x4_n3_alt))
  (let ((let2 x1_n6_alt))
  (let ((let3 x2_n12_alt))
  (let ((let4 x11_n2_alt))
  (let ((let5 x7_n5_alt))
  (let ((let6 x6_n8_alt))
  (let ((let7 x9_n11_alt))
  (let ((let8 x5_n1_alt))
  (let ((let9 x10_n4_alt))
  (let ((let10 x0_n7_alt))
  (let ((let11 x3_n10_alt))
  (let ((let12 x8_n0_alt))
  (let ((let13 (ff.add let12 let11 let10 let9 let8 let7 let6 let5 let4 let3 let2 let1)))
  (let ((let14 (as ff1 FF0)))
  (let ((let15 (as ff52435875175126190479447740508185965837690552500527637822603658699938581184512 FF0)))
  (let ((let16 return_n9_alt))
  (let ((let17 (ff.mul let16 let15)))
  (let ((let18 (ff.add let17 let14)))
  (let ((let19 (ff.mul let18 let13)))
  (let ((let20 (= let19 let0)))
  (let ((let21 is_zero_inv_n13_alt))
  (let ((let22 (ff.mul let21 let13)))
  (let ((let23 (= let22 let16)))
  (let ((let24 (and let23 let20)))
  (let ((let25 x4_n3))
  (let ((let26 x1_n6))
  (let ((let27 x2_n12))
  (let ((let28 x11_n2))
  (let ((let29 x7_n5))
  (let ((let30 x6_n8))
  (let ((let31 x9_n11))
  (let ((let32 x5_n1))
  (let ((let33 x10_n4))
  (let ((let34 x0_n7))
  (let ((let35 x3_n10))
  (let ((let36 x8_n0))
  (let ((let37 (ff.add let36 let35 let34 let33 let32 let31 let30 let29 let28 let27 let26 let25)))
  (let ((let38 return_n9))
  (let ((let39 (ff.mul let38 let15)))
  (let ((let40 (ff.add let39 let14)))
  (let ((let41 (ff.mul let40 let37)))
  (let ((let42 (= let41 let0)))
  (let ((let43 is_zero_inv_n13))
  (let ((let44 (ff.mul let43 let37)))
  (let ((let45 (= let44 let38)))
  (let ((let46 (and let45 let42)))
  (let ((let47 (= let38 let16)))
  (let ((let48 (not let47)))
  (let ((let49 (= let25 let1)))
  (let ((let50 (= let36 let12)))
  (let ((let51 (= let29 let5)))
  (let ((let52 (= let32 let8)))
  (let ((let53 (= let27 let3)))
  (let ((let54 (= let31 let7)))
  (let ((let55 (= let33 let9)))
  (let ((let56 (= let30 let6)))
  (let ((let57 (= let35 let11)))
  (let ((let58 (= let34 let10)))
  (let ((let59 (= let28 let4)))
  (let ((let60 (= let26 let2)))
  (let ((let61 (and let60 let59 let58 let57 let56 let55 let54 let53 let52 let51 let50 let49)))
  (let ((let62 (and let61 let48 let46 let24)))
  let62
)))))))))))))))))))))))))))))))))))))))))))))))))))))))))))))))
)
(check-sat)
